networks/zoo_78_890/zoo_78_890-lower.txt
Number of groups: 41
Flow 19: {18 20 0} {20 59 1} 
Flow 32: {1 37 0} {37 35 1} {35 34 2} {34 73 3} 
Flow 45: {2 1 0} {1 36 1} {36 12 2} {12 51 3} 
Flow 69: {3 39 0} {39 78 1} 
Flow 92: {24 63 0} 
Flow 99: {36 33 0} {33 32 1} {32 71 2} 
Flow 110: {5 8 0} {8 47 1} 
Flow 122: {6 8 0} {8 5 1} {5 44 2} 
Flow 131: {6 7 0} {7 10 1} {10 24 2} {24 16 3} {16 55 4} 
Flow 194: {9 8 0} {8 19 1} {19 58 2} 
Flow 243: {11 10 0} {10 7 1} {7 6 2} 
Flow 275: {12 36 0} 
Flow 288: {13 36 0} {36 4 1} {4 43 2} 
Flow 297: {14 35 0} {35 36 1} {36 1 2} {1 40 3} 
Flow 322: {15 1 0} {1 4 1} {4 18 2} {18 57 3} 
Flow 336: {16 24 0} {24 10 1} {10 49 2} 
Flow 351: {39 3 0} {3 42 1} 
Flow 363: {17 8 0} {8 7 1} {7 1 2} {1 15 3} {15 54 4} 
Flow 426: {19 8 0} {8 9 1} {9 48 2} 
Flow 437: {10 25 0} {25 64 1} 
Flow 449: {20 18 0} {18 4 1} {4 1 2} {1 7 3} {7 46 4} 
Flow 467: {21 38 0} {38 36 1} {36 35 2} {35 74 3} 
Flow 480: {22 39 0} {39 33 1} {33 72 2} 
Flow 497: {23 36 0} {36 13 1} {13 52 2} 
Flow 498: {35 14 0} {14 53 1} 
Flow 531: {25 10 0} {10 8 1} {8 36 2} {36 75 3} 
Flow 540: {26 4 0} {4 36 1} {36 30 2} {30 69 3} 
Flow 557: {27 36 0} {36 23 1} {23 62 2} 
Flow 570: {28 36 0} {36 8 1} {8 10 2} {10 11 3} {11 50 4} 
Flow 572: {8 17 0} {17 56 1} 
Flow 584: {29 39 0} {39 8 1} {8 6 2} {6 45 3} 
Flow 627: {30 36 0} {36 27 1} {27 66 2} 
Flow 654: {31 36 0} {36 38 1} {38 21 2} {21 60 3} 
Flow 682: {32 33 0} {33 39 1} 
Flow 699: {33 36 0} {36 31 1} {31 70 2} 
Flow 721: {34 35 0} {35 37 1} {37 76 2} 
Flow 798: {37 1 0} {1 2 1} {2 41 2} 
Flow 817: {7 8 0} {8 39 1} {39 22 2} {22 61 3} 
Flow 823: {36 28 0} {28 67 1} 
Flow 846: {4 26 0} {26 65 1} 
Flow 890: {38 77 0} 
Time taken running everything: 3 seconds
