networks/zoo_78_890/zoo_78_890-lower.sol
<?xml version = "1.0" encoding="UTF-8" standalone="yes"?>
<CPLEXSolution version="1.2">
 <header
   problemName="networks/zoo_78_890/zoo_78_890-lower.lp"
   solutionName="incumbent"
   solutionIndex="-1"
   objectiveValue="38"
   solutionTypeValue="3"
   solutionTypeString="primal"
   solutionStatusValue="101"
   solutionStatusString="integer optimal solution"
   solutionMethodString="mip"
   primalFeasible="1"
   dualFeasible="1"
   MIPNodes="0"
   MIPIterations="0"
   writeLevel="3"/>
 <quality
   epInt="1.0000000000000001e-05"
   epRHS="9.9999999999999995e-07"
   maxIntInfeas="0"
   maxPrimalInfeas="0"
   maxX="1"
   maxSlack="1"/>
 <variables>
  <variable name="Y(1,2)" index="1" value="1"/>
  <variable name="Y(2,3)" index="79" value="1"/>
  <variable name="Y(3,4)" index="157" value="1"/>
  <variable name="Y(4,5)" index="235" value="1"/>
  <variable name="Y(5,6)" index="313" value="1"/>
  <variable name="Y(6,7)" index="391" value="1"/>
  <variable name="Y(7,8)" index="469" value="1"/>
  <variable name="Y(8,9)" index="547" value="1"/>
  <variable name="Y(9,10)" index="625" value="1"/>
  <variable name="Y(10,11)" index="703" value="1"/>
  <variable name="Y(11,12)" index="781" value="1"/>
  <variable name="Y(12,13)" index="859" value="1"/>
  <variable name="Y(13,14)" index="937" value="1"/>
  <variable name="Y(14,15)" index="1015" value="1"/>
  <variable name="Y(15,16)" index="1093" value="1"/>
  <variable name="Y(16,17)" index="1171" value="1"/>
  <variable name="Y(17,18)" index="1249" value="1"/>
  <variable name="Y(18,19)" index="1327" value="1"/>
  <variable name="Y(19,20)" index="1405" value="1"/>
  <variable name="Y(20,21)" index="1483" value="1"/>
  <variable name="Y(21,22)" index="1561" value="1"/>
  <variable name="Y(22,23)" index="1639" value="1"/>
  <variable name="Y(23,24)" index="1717" value="1"/>
  <variable name="Y(24,25)" index="1795" value="1"/>
  <variable name="Y(25,26)" index="1873" value="1"/>
  <variable name="Y(26,27)" index="1951" value="1"/>
  <variable name="Y(27,28)" index="2029" value="1"/>
  <variable name="Y(28,30)" index="2108" value="1"/>
  <variable name="Y(29,31)" index="2186" value="1"/>
  <variable name="Y(30,32)" index="2264" value="1"/>
  <variable name="Y(31,33)" index="2342" value="1"/>
  <variable name="Y(32,34)" index="2420" value="1"/>
  <variable name="Y(33,35)" index="2498" value="1"/>
  <variable name="Y(34,36)" index="2576" value="1"/>
  <variable name="Y(35,37)" index="2654" value="1"/>
  <variable name="Y(36,38)" index="2732" value="1"/>
  <variable name="Y(37,39)" index="2810" value="1"/>
  <variable name="Y(38,1)" index="2849" value="1"/>
  <variable name="X(1,2,1)" index="68530" value="1"/>
  <variable name="X(1,4,3)" index="69422" value="1"/>
  <variable name="X(1,7,2)" index="70311" value="1"/>
  <variable name="X(1,15,14)" index="71213" value="1"/>
  <variable name="X(1,36,11)" index="72100" value="1"/>
  <variable name="X(1,37,13)" index="72992" value="1"/>
  <variable name="X(1,40,38)" index="73907" value="1"/>
  <variable name="X(2,1,38)" index="74797" value="1"/>
  <variable name="X(2,41,1)" index="75650" value="1"/>
  <variable name="X(3,39,56)" index="76595" value="1"/>
  <variable name="X(3,42,2)" index="77431" value="1"/>
  <variable name="X(4,1,70)" index="78389" value="1"/>
  <variable name="X(4,18,17)" index="79226" value="1"/>
  <variable name="X(4,26,25)" index="80124" value="1"/>
  <variable name="X(4,36,72)" index="81061" value="1"/>
  <variable name="X(4,43,3)" index="81882" value="1"/>
  <variable name="X(5,8,107)" index="82876" value="1"/>
  <variable name="X(5,44,4)" index="83663" value="1"/>
  <variable name="X(6,7,119)" index="84668" value="1"/>
  <variable name="X(6,8,122)" index="85561" value="1"/>
  <variable name="X(6,45,5)" index="86334" value="1"/>
  <variable name="X(7,1,56)" index="87275" value="1"/>
  <variable name="X(7,6,5)" index="88114" value="1"/>
  <variable name="X(7,8,2)" index="89001" value="1"/>
  <variable name="X(7,10,9)" index="89898" value="1"/>
  <variable name="X(7,46,6)" index="90785" value="1"/>
  <variable name="X(8,5,4)" index="91673" value="1"/>
  <variable name="X(8,6,153)" index="92712" value="1"/>
  <variable name="X(8,7,56)" index="93505" value="1"/>
  <variable name="X(8,9,8)" index="94347" value="1"/>
  <variable name="X(8,10,60)" index="95289" value="1"/>
  <variable name="X(8,17,16)" index="96135" value="1"/>
  <variable name="X(8,19,18)" index="97027" value="1"/>
  <variable name="X(8,36,57)" index="97956" value="1"/>
  <variable name="X(8,39,2)" index="98791" value="1"/>
  <variable name="X(8,47,7)" index="99686" value="1"/>
  <variable name="X(9,8,185)" index="100754" value="1"/>
  <variable name="X(9,48,8)" index="101467" value="1"/>
  <variable name="X(10,7,202)" index="102551" value="1"/>
  <variable name="X(10,8,204)" index="103443" value="1"/>
  <variable name="X(10,11,10)" index="104139" value="1"/>
  <variable name="X(10,24,15)" index="105034" value="1"/>
  <variable name="X(10,25,24)" index="105933" value="1"/>
  <variable name="X(10,49,9)" index="106808" value="1"/>
  <variable name="X(11,10,238)" index="107927" value="1"/>
  <variable name="X(11,50,10)" index="108589" value="1"/>
  <variable name="X(12,36,275)" index="109744" value="1"/>
  <variable name="X(12,51,11)" index="110370" value="1"/>
  <variable name="X(13,36,288)" index="111537" value="1"/>
  <variable name="X(13,52,12)" index="112151" value="1"/>
  <variable name="X(14,35,297)" index="113326" value="1"/>
  <variable name="X(14,53,13)" index="113932" value="1"/>
  <variable name="X(15,1,313)" index="115122" value="1"/>
  <variable name="X(15,54,14)" index="115713" value="1"/>
  <variable name="X(16,24,331)" index="116920" value="1"/>
  <variable name="X(16,55,15)" index="117494" value="1"/>
  <variable name="X(17,8,349)" index="118718" value="1"/>
  <variable name="X(17,56,16)" index="119275" value="1"/>
  <variable name="X(18,4,386)" index="120535" value="1"/>
  <variable name="X(18,20,19)" index="121058" value="1"/>
  <variable name="X(18,57,17)" index="121946" value="1"/>
  <variable name="X(19,8,418)" index="123237" value="1"/>
  <variable name="X(19,58,18)" index="123727" value="1"/>
  <variable name="X(20,18,448)" index="125047" value="1"/>
  <variable name="X(20,59,19)" index="125508" value="1"/>
  <variable name="X(21,38,457)" index="126836" value="1"/>
  <variable name="X(21,60,20)" index="127289" value="1"/>
  <variable name="X(22,39,471)" index="128630" value="1"/>
  <variable name="X(22,61,21)" index="129070" value="1"/>
  <variable name="X(23,36,485)" index="130424" value="1"/>
  <variable name="X(23,62,22)" index="130851" value="1"/>
  <variable name="X(24,10,331)" index="132050" value="1"/>
  <variable name="X(24,16,15)" index="132624" value="1"/>
  <variable name="X(24,63,23)" index="133522" value="1"/>
  <variable name="X(25,10,531)" index="134920" value="1"/>
  <variable name="X(25,64,24)" index="135303" value="1"/>
  <variable name="X(26,4,532)" index="136701" value="1"/>
  <variable name="X(26,65,25)" index="137084" value="1"/>
  <variable name="X(27,36,546)" index="138495" value="1"/>
  <variable name="X(27,66,26)" index="138865" value="1"/>
  <variable name="X(28,36,564)" index="140293" value="1"/>
  <variable name="X(28,67,27)" index="140646" value="1"/>
  <variable name="X(29,39,582)" index="142091" value="1"/>
  <variable name="X(30,36,601)" index="143000" value="1"/>
  <variable name="X(30,69,28)" index="143317" value="1"/>
  <variable name="X(31,36,638)" index="144817" value="1"/>
  <variable name="X(31,70,29)" index="145098" value="1"/>
  <variable name="X(32,33,665)" index="146624" value="1"/>
  <variable name="X(32,71,30)" index="146879" value="1"/>
  <variable name="X(33,32,30)" index="147769" value="1"/>
  <variable name="X(33,36,665)" index="149294" value="1"/>
  <variable name="X(33,39,682)" index="150201" value="1"/>
  <variable name="X(33,72,31)" index="150440" value="1"/>
  <variable name="X(34,35,704)" index="152003" value="1"/>
  <variable name="X(34,73,32)" index="152221" value="1"/>
  <variable name="X(35,14,13)" index="153092" value="1"/>
  <variable name="X(35,34,32)" index="154001" value="1"/>
  <variable name="X(35,36,297)" index="155156" value="1"/>
  <variable name="X(35,37,311)" index="156060" value="1"/>
  <variable name="X(35,74,33)" index="156672" value="1"/>
  <variable name="X(36,1,275)" index="157804" value="1"/>
  <variable name="X(36,4,57)" index="158476" value="1"/>
  <variable name="X(36,8,72)" index="159381" value="1"/>
  <variable name="X(36,12,11)" index="160210" value="1"/>
  <variable name="X(36,13,12)" index="161101" value="1"/>
  <variable name="X(36,23,22)" index="162001" value="1"/>
  <variable name="X(36,27,26)" index="162895" value="1"/>
  <variable name="X(36,28,27)" index="163786" value="1"/>
  <variable name="X(36,30,28)" index="164677" value="1"/>
  <variable name="X(36,31,29)" index="165568" value="1"/>
  <variable name="X(36,33,30)" index="166459" value="1"/>
  <variable name="X(36,35,66)" index="167385" value="1"/>
  <variable name="X(36,38,20)" index="168229" value="1"/>
  <variable name="X(36,75,34)" index="169133" value="1"/>
  <variable name="X(37,1,797)" index="170786" value="1"/>
  <variable name="X(37,35,13)" index="170892" value="1"/>
  <variable name="X(37,76,35)" index="171804" value="1"/>
  <variable name="X(38,21,20)" index="172679" value="1"/>
  <variable name="X(38,36,457)" index="174006" value="1"/>
  <variable name="X(38,77,36)" index="174475" value="1"/>
  <variable name="X(39,3,2)" index="175331" value="1"/>
  <variable name="X(39,8,56)" index="176275" value="1"/>
  <variable name="X(39,22,21)" index="177130" value="1"/>
  <variable name="X(39,33,65)" index="178064" value="1"/>
  <variable name="X(39,78,37)" index="178926" value="1"/>
 </variables>
</CPLEXSolution>
